SCIP version 5.0.0 [precision: 8 byte] [memory: block] [mode: optimized] [LP solver: NONE] [GitHash: 3bbd232]
Copyright (C) 2002-2017 Konrad-Zuse-Zentrum fuer Informationstechnik Berlin (ZIB)

External codes: 
  Readline EditLine w  GNU library for command line editing (gnu.org/s/readline)
  CppAD 20160000.1     Algorithmic Differentiation of C++ algorithms developed by B. Bell (www.coin-or.org/CppAD)
  ZLIB 1.2.5           General purpose compression library by J. Gailly and M. Adler (zlib.net)
  GMP 6.1.2            GNU Multiple Precision Arithmetic Library developed by T. Granlund (gmplib.org)

user parameter file <scip.set> not found - using default parameters

read problem <../../Split_data/output/biodeg/0/1_sample_biodeg.logreg>
============

File name	:	../../Split_data/output/biodeg/0/1_sample_biodeg.logreg
Problem name 	:	1_sample_biodeg
Number of data	:	844
Number of var	:	41
The given data has linear dependence
1 sets of column vector are linearly dependent:
{ 19}, 

[dim=1] time: 0.027219
[dim=2] time: 0.066497
[dim=3] time: 0.099761
[dim=4] time: 0.136584
[dim=5] time: 0.175137
[dim=6] time: 0.209756
[dim=7] time: 0.238645
[dim=8] time: 0.264587
[dim=9] time: 0.293258
[dim=10] time: 0.323716
[dim=11] time: 0.348224
[dim=12] time: 0.37188
[dim=13] time: 0.396173
[dim=14] time: 0.416414
[dim=15] time: 0.440796
[dim=16] time: 0.461682
[dim=17] Time of forward = 0.478216sec.
AIC: 525.597
k: 16

[dim=40] time: 0.130006
[dim=39] time: 0.177485
[dim=38] time: 0.222032
[dim=37] time: 0.268831
[dim=36] time: 0.305747
[dim=35] time: 0.347718
[dim=34] time: 0.394018
[dim=33] time: 0.441779
[dim=32] time: 0.48001
[dim=31] time: 0.521019
[dim=30] time: 0.559369
[dim=29] time: 0.60035
[dim=28] time: 0.644125
[dim=27] time: 0.677777
[dim=26] time: 0.704492
[dim=25] time: 0.728661
[dim=24] time: 0.752641
[dim=23] time: 0.776923
[dim=22] time: 0.800627
[dim=21] time: 0.821816
[dim=20] Time of backward = 0.844209sec.
AIC: 519.149
k: 21
